# Solution for model count
# Objective value = 10
z#1 0
z#2 1
z#3 0
z#4 1
z#5 1
z#6 0
z#7 0
z#8 1
z#9 0
z#10 1
z#11 0
z#12 0
z#13 1
z#14 0
z#15 0
z#16 0
z#17 0
z#18 0
z#19 1
z#20 1
z#21 0
z#22 1
z#23 1
z#24 0
x#24 0
x#23 556
x#22 19
x#21 0
x#20 2203
x#19 1437
x#18 0
x#17 0
x#16 0
x#15 0
x#14 0
x#13 12
x#12 0
x#11 0
x#10 1237
x#9 0
x#8 2001
x#7 0
x#6 0
x#5 1335
x#4 560
x#3 0
x#2 640
x#1 0
